proyfinal/src/viki/013/andrea/andrea-localstore/experimentInOfficeAgust.take6/worker_1/e2a60233-e1b5-4cec-8939-10a94f55fec9.als.cnf.out
Reading from standard input... Use '--help' for help.
============================[ Problem Statistics ]=============================
|                                                                             |
|  Number of variables:         87638                                         |
|  Number of clauses:          161767                                         |
|  Parse time:                   0.03 s                                       |
|                                                                             |
============================[ Search Statistics ]==============================
| Conflicts |          ORIGINAL         |          LEARNT          | Progress |
|           |    Vars  Clauses Literals |    Limit  Clauses Lit/Cl |          |
===============================================================================
|       100 |   63216   108235   270341 |    39686      100      9 | 27.867 % |
|       250 |   63216   108235   270341 |    43654      250     31 | 27.867 % |
|       475 |   63216   108235   270341 |    48020      475     52 | 27.867 % |
|       812 |   63216   108235   270341 |    52822      812     87 | 27.867 % |
|      1318 |   63216   108235   270341 |    58104     1318     94 | 27.867 % |
|      2077 |   63216   108235   270341 |    63914     2077     91 | 27.867 % |
|      3216 |   63216   108235   270341 |    70306     3216     80 | 27.867 % |
|      4924 |   63215   108191   270251 |    77337     4920     84 | 27.868 % |
|      7486 |   63215   108191   270251 |    85070     7482     75 | 27.868 % |
|     11330 |   53861    79937   200885 |    93577     8891     75 | 38.542 % |
|     17096 |   53203    77326   194518 |   102935    13871     73 | 39.292 % |
===============================================================================
restarts              : 63
conflicts             : 18170          (7241 /sec)
decisions             : 73484          (0.00 % random) (29283 /sec)
propagations          : 26768944       (10667272 /sec)
conflict literals     : 1266812        (44.28 % deleted)
Memory used           : 37.82 MB
CPU time              : 2.50945 s

INDETERMINATE
